
Gurobi 7.5.2 (linux64, Python) logging started Thu Mar 28 14:44:18 2019

Academic license - for non-commercial use only

Gurobi 7.5.2 (linux64, Python) logging started Sat Mar 30 17:57:18 2019

Academic license - for non-commercial use only

Gurobi 7.5.2 (linux64, Python) logging started Sat Mar 30 18:34:18 2019

Academic license - for non-commercial use only

Gurobi 7.5.2 (linux64, Python) logging started Mon Apr  1 12:53:35 2019

Academic license - for non-commercial use only
